MLW06
Position Depot: Center
Horizon for Depot: Large
Position of customers: Mixt
Distribution of the demand: Medium
Width of time windows: Wide
Distribution of the service: Large

VEHICLE 
NUMBER 	 CAPACITY 
 10 	 	 206 
 
CUSTOMER
CUST NO. 	 XCOORD.  	 YCOORD. 	 DEMAND 	 READY TIME 	 DUE DATE 	 SERVICE TIME 
 0 	 	 500 	 	 500 	 	 0 	 	 0 	 	 4750 	 	 0 
  1 	 	 26 	 	 634 	 	 5 	 	 2470 	 	 2757 	 	 155 
  2 	 	 74 	 	 779 	 	 5 	 	 2211 	 	 2600 	 	 141 
  3 	 	 879 	 	 764 	 	 9 	 	 2624 	 	 3022 	 	 149 
  4 	 	 239 	 	 743 	 	 1 	 	 141 	 	 392 	 	 119 
  5 	 	 29 	 	 689 	 	 3 	 	 1434 	 	 1711 	 	 187 
  6 	 	 127 	 	 820 	 	 5 	 	 1972 	 	 2469 	 	 193 
  7 	 	 267 	 	 797 	 	 8 	 	 3463 	 	 3833 	 	 137 
  8 	 	 8 	 	 623 	 	 8 	 	 2851 	 	 3085 	 	 111 
  9 	 	 139 	 	 832 	 	 8 	 	 1078 	 	 1345 	 	 163 
  10 	 	 73 	 	 781 	 	 78 	 	 124 	 	 573 	 	 149 
  11 	 	 261 	 	 774 	 	 9 	 	 2962 	 	 3186 	 	 190 
  12 	 	 273 	 	 728 	 	 56 	 	 3065 	 	 3303 	 	 177 
  13 	 	 925 	 	 763 	 	 9 	 	 196 	 	 549 	 	 180 
  14 	 	 165 	 	 691 	 	 2 	 	 2854 	 	 3259 	 	 150 
  15 	 	 268 	 	 685 	 	 10 	 	 1094 	 	 1510 	 	 159 
  16 	 	 838 	 	 838 	 	 6 	 	 512 	 	 855 	 	 112 
  17 	 	 85 	 	 622 	 	 85 	 	 1928 	 	 2128 	 	 158 
  18 	 	 70 	 	 859 	 	 7 	 	 4073 	 	 4408 	 	 157 
  19 	 	 856 	 	 790 	 	 62 	 	 2910 	 	 3346 	 	 164 
  20 	 	 361 	 	 828 	 	 8 	 	 4232 	 	 4645 	 	 134 
  21 	 	 888 	 	 770 	 	 8 	 	 1279 	 	 1644 	 	 184 
  22 	 	 246 	 	 756 	 	 84 	 	 2317 	 	 2671 	 	 140 
  23 	 	 371 	 	 574 	 	 3 	 	 4017 	 	 4241 	 	 184 
  24 	 	 17 	 	 890 	 	 4 	 	 1560 	 	 1920 	 	 198 
  25 	 	 841 	 	 791 	 	 6 	 	 1281 	 	 1716 	 	 161 
  26 	 	 137 	 	 775 	 	 6 	 	 128 	 	 516 	 	 158 
  27 	 	 945 	 	 753 	 	 6 	 	 841 	 	 1160 	 	 126 
  28 	 	 95 	 	 736 	 	 71 	 	 667 	 	 871 	 	 140 
  29 	 	 252 	 	 770 	 	 82 	 	 198 	 	 403 	 	 164 
  30 	 	 414 	 	 868 	 	 4 	 	 3797 	 	 4048 	 	 101 
  31 	 	 179 	 	 744 	 	 3 	 	 3757 	 	 4246 	 	 156 
  32 	 	 228 	 	 611 	 	 10 	 	 2894 	 	 3349 	 	 148 
  33 	 	 5 	 	 610 	 	 10 	 	 4212 	 	 4617 	 	 174 
  34 	 	 886 	 	 754 	 	 1 	 	 4193 	 	 4514 	 	 119 
  35 	 	 967 	 	 713 	 	 2 	 	 2449 	 	 2890 	 	 129 
  36 	 	 314 	 	 642 	 	 9 	 	 3936 	 	 4300 	 	 134 
  37 	 	 167 	 	 612 	 	 3 	 	 173 	 	 520 	 	 113 
  38 	 	 951 	 	 811 	 	 84 	 	 2264 	 	 2488 	 	 179 
  39 	 	 101 	 	 805 	 	 4 	 	 2760 	 	 3257 	 	 137 
  40 	 	 886 	 	 644 	 	 8 	 	 2111 	 	 2417 	 	 123 
  41 	 	 317 	 	 607 	 	 1 	 	 1023 	 	 1514 	 	 179 
  42 	 	 41 	 	 606 	 	 7 	 	 2398 	 	 2828 	 	 169 
  43 	 	 321 	 	 599 	 	 7 	 	 3990 	 	 4427 	 	 161 
  44 	 	 141 	 	 644 	 	 3 	 	 1045 	 	 1542 	 	 144 
  45 	 	 17 	 	 727 	 	 2 	 	 2440 	 	 2827 	 	 145 
  46 	 	 26 	 	 770 	 	 53 	 	 1574 	 	 1978 	 	 122 
  47 	 	 107 	 	 790 	 	 4 	 	 3909 	 	 4234 	 	 131 
  48 	 	 99 	 	 548 	 	 10 	 	 535 	 	 982 	 	 180 
  49 	 	 925 	 	 729 	 	 9 	 	 3086 	 	 3546 	 	 126 
  50 	 	 59 	 	 634 	 	 4 	 	 285 	 	 506 	 	 126 
  51 	 	 176 	 	 684 	 	 9 	 	 1202 	 	 1645 	 	 147 
  52 	 	 138 	 	 405 	 	 6 	 	 910 	 	 1209 	 	 178 
  53 	 	 681 	 	 415 	 	 73 	 	 3082 	 	 3447 	 	 180 
  54 	 	 605 	 	 222 	 	 5 	 	 3096 	 	 3518 	 	 103 
  55 	 	 491 	 	 23 	 	 9 	 	 1495 	 	 1886 	 	 130 
  56 	 	 570 	 	 238 	 	 10 	 	 3580 	 	 4078 	 	 172 
  57 	 	 834 	 	 476 	 	 2 	 	 -54 	 	 368 	 	 145 
  58 	 	 393 	 	 270 	 	 7 	 	 3882 	 	 4353 	 	 105 
  59 	 	 220 	 	 666 	 	 10 	 	 3286 	 	 3722 	 	 147 
  60 	 	 230 	 	 95 	 	 8 	 	 113 	 	 535 	 	 166 
  61 	 	 158 	 	 439 	 	 7 	 	 686 	 	 981 	 	 117 
  62 	 	 109 	 	 367 	 	 6 	 	 3089 	 	 3354 	 	 123 
  63 	 	 999 	 	 748 	 	 1 	 	 1959 	 	 2374 	 	 140 
  64 	 	 256 	 	 836 	 	 1 	 	 3590 	 	 3831 	 	 200 
  65 	 	 398 	 	 874 	 	 4 	 	 3969 	 	 4259 	 	 128 
  66 	 	 72 	 	 827 	 	 4 	 	 2592 	 	 2960 	 	 173 
  67 	 	 836 	 	 860 	 	 1 	 	 281 	 	 642 	 	 128 
  68 	 	 910 	 	 221 	 	 10 	 	 899 	 	 1196 	 	 182 
  69 	 	 438 	 	 535 	 	 10 	 	 752 	 	 1019 	 	 134 
  70 	 	 573 	 	 864 	 	 83 	 	 1004 	 	 1414 	 	 137 
  71 	 	 245 	 	 826 	 	 5 	 	 670 	 	 963 	 	 104 
  72 	 	 871 	 	 466 	 	 66 	 	 2369 	 	 2842 	 	 172 
  73 	 	 330 	 	 402 	 	 1 	 	 3530 	 	 3952 	 	 167 
  74 	 	 436 	 	 326 	 	 9 	 	 3972 	 	 4313 	 	 152 
  75 	 	 10 	 	 894 	 	 9 	 	 3651 	 	 3964 	 	 154 
  76 	 	 677 	 	 674 	 	 9 	 	 3086 	 	 3413 	 	 186 
  77 	 	 638 	 	 634 	 	 2 	 	 2587 	 	 2964 	 	 147 
  78 	 	 525 	 	 682 	 	 9 	 	 3185 	 	 3492 	 	 100 
  79 	 	 632 	 	 290 	 	 50 	 	 483 	 	 761 	 	 167 
  80 	 	 462 	 	 839 	 	 71 	 	 2525 	 	 2827 	 	 138 
  81 	 	 32 	 	 594 	 	 51 	 	 4322 	 	 4592 	 	 172 
  82 	 	 564 	 	 463 	 	 6 	 	 2438 	 	 2885 	 	 130 
  83 	 	 892 	 	 226 	 	 2 	 	 280 	 	 533 	 	 185 
  84 	 	 460 	 	 356 	 	 98 	 	 1314 	 	 1711 	 	 168 
  85 	 	 536 	 	 258 	 	 90 	 	 3209 	 	 3647 	 	 115 
  86 	 	 577 	 	 743 	 	 7 	 	 1855 	 	 2310 	 	 111 
  87 	 	 1000 	 	 328 	 	 10 	 	 3429 	 	 3633 	 	 190 
  88 	 	 161 	 	 596 	 	 6 	 	 1511 	 	 1947 	 	 200 
  89 	 	 739 	 	 957 	 	 9 	 	 2555 	 	 2963 	 	 144 
  90 	 	 709 	 	 699 	 	 5 	 	 4373 	 	 4750 	 	 109 
  91 	 	 837 	 	 141 	 	 53 	 	 2463 	 	 2929 	 	 160 
  92 	 	 100 	 	 63 	 	 3 	 	 2790 	 	 3065 	 	 126 
  93 	 	 333 	 	 162 	 	 86 	 	 4232 	 	 4504 	 	 161 
  94 	 	 769 	 	 630 	 	 88 	 	 828 	 	 1148 	 	 158 
  95 	 	 331 	 	 595 	 	 10 	 	 2293 	 	 2710 	 	 103 
  96 	 	 713 	 	 905 	 	 4 	 	 2755 	 	 3208 	 	 142 
  97 	 	 673 	 	 669 	 	 55 	 	 3982 	 	 4213 	 	 174 
  98 	 	 943 	 	 148 	 	 1 	 	 1893 	 	 2331 	 	 172 
  99 	 	 790 	 	 742 	 	 2 	 	 1047 	 	 1490 	 	 197 
  100 	 	 14 	 	 758 	 	 77 	 	 614 	 	 996 	 	 131 
 